\ENCODING=ISO-8859-1
\Problem name: example/testp1.lp

Minimize
 OBJ: - 0.32 x0 - 7.95 x1 + 4.58 x2 - 150.74 x3 - 194.95 x4 + 24.96 x5
      + 10.26 x6
Subject To
 C0: 11.82 x0 + 14.43 x1 + 14.08 x2 + 15.5 x3 + 11.11 x4 + 5.27 x5 + 14.75 x6
     + s0  = 83.51
 C1: 5.69 x0 + 16.74 x1 + 18.79 x2 + 6.99 x3 + 19.28 x4 + 12.88 x5 + 14.9 x6
     + s1  = 127.75
 C2: 10.33 x0 + 19.23 x1 + 14.25 x2 + 0.77 x3 + 0.88 x4 + 5.11 x5 + 13.15 x6
     + s2  = 90.15
Bounds
 0 <= x3 <= 1
 0 <= x4 <= 1
      x5 >= 0
      x6 >= 0
Binaries
 x3  x4 
Generals
 x5  x6 
End
